Maximize
  - 39 x0 - 45 x1 + 0 x2 + 31 x3 - 8 x4 - 12 x5 + 44 x6 + 15 x7 + 5 x8
   + 27 x9 + 15 x10 + 0 x11 + 33 x12 - 33 x13 + 26 x14 - 8 x15 - 49 x16
   - 35 x17 + 32 x18 - 48 x19 + 0 x20 + 47 x21 - 25 x22 - 40 x23 - 33 x24
   + 25 x25 - 47 x26 - 42 x27 + 33 x28 - 25 x29 + [ - 14 x0 ^2 + 34 x0 * x1
   - 14 x0 * x2 - 88 x0 * x3 - 42 x0 * x4 + 46 x0 * x5 + 78 x0 * x6
   - 32 x0 * x7 + 14 x0 * x8 + 42 x0 * x9 + 80 x0 * x12 + 6 x0 * x14
   - 34 x0 * x15 - 34 x0 * x17 + 90 x0 * x18 - 42 x0 * x19 + 32 x0 * x20
   + 34 x0 * x21 + 84 x0 * x22 - 20 x0 * x23 + 46 x0 * x24 - 78 x0 * x25
   + 4 x0 * x26 - 4 x0 * x27 - 44 x0 * x28 + 70 x0 * x29 - 27 x1 ^2
   - 72 x1 * x2 - 70 x1 * x3 + 26 x1 * x4 - 26 x1 * x5 + 74 x1 * x6
   - 38 x1 * x7 - 88 x1 * x8 - 38 x1 * x9 + 70 x1 * x10 - 42 x1 * x11
   - 24 x1 * x12 + 72 x1 * x13 - 82 x1 * x14 + 28 x1 * x15 - 12 x1 * x16
   + 92 x1 * x17 + 16 x1 * x18 + 2 x1 * x19 - 30 x1 * x20 - 46 x1 * x21
   - 64 x1 * x22 + 6 x1 * x23 - 60 x1 * x24 - 12 x1 * x25 - 58 x1 * x26
   - 80 x1 * x27 + 62 x1 * x28 - 74 x1 * x29 - 10 x2 ^2 - 72 x2 * x3
   + 8 x2 * x4 + 32 x2 * x5 - 84 x2 * x7 - 46 x2 * x8 - 38 x2 * x9
   - 54 x2 * x10 - 92 x2 * x11 - 58 x2 * x12 - 56 x2 * x13 - 22 x2 * x14
   - 14 x2 * x15 + 58 x2 * x17 + 82 x2 * x18 - 24 x2 * x19 - 62 x2 * x20
   - 44 x2 * x21 + 2 x2 * x22 - 16 x2 * x23 + 30 x2 * x24 + 92 x2 * x25
   - 94 x2 * x26 + 88 x2 * x27 - 94 x2 * x28 - 22 x2 * x29 + 26 x3 ^2
   + 78 x3 * x4 - 34 x3 * x5 - 58 x3 * x6 - 64 x3 * x7 - 20 x3 * x8
   + 4 x3 * x10 - 52 x3 * x12 + 30 x3 * x14 + 90 x3 * x15 - 94 x3 * x16
   + 14 x3 * x18 - 16 x3 * x19 - 34 x3 * x20 - 58 x3 * x22 + 84 x3 * x23
   + 46 x3 * x24 + 70 x3 * x25 - 40 x3 * x26 + 80 x3 * x27 + 12 x3 * x28
   + 46 x3 * x29 - 49 x4 ^2 + 18 x4 * x5 + 92 x4 * x6 + 86 x4 * x8
   + 46 x4 * x9 + 12 x4 * x10 + 4 x4 * x12 + 32 x4 * x13 - 72 x4 * x14
   - 84 x4 * x15 - 90 x4 * x16 + 88 x4 * x17 - 88 x4 * x18 + 62 x4 * x19
   - 38 x4 * x20 - 42 x4 * x21 + 22 x4 * x22 - 78 x4 * x23 - 8 x4 * x24
   + 96 x4 * x25 - 80 x4 * x26 - 96 x4 * x27 + 62 x4 * x28 - 64 x5 * x6
   + 14 x5 * x7 - 4 x5 * x8 + 32 x5 * x9 + 20 x5 * x10 + 28 x5 * x11
   + 90 x5 * x12 + 20 x5 * x13 - 84 x5 * x14 - 24 x5 * x15 - 8 x5 * x16
   + 58 x5 * x17 + 90 x5 * x18 + 88 x5 * x19 + 94 x5 * x20 + 10 x5 * x21
   - 18 x5 * x22 - 18 x5 * x24 - 10 x5 * x25 - 86 x5 * x26 + 28 x5 * x27
   + 94 x5 * x28 - 60 x5 * x29 - 4 x6 ^2 + 70 x6 * x7 + 62 x6 * x8
   - 72 x6 * x9 + 82 x6 * x10 + 92 x6 * x12 + 50 x6 * x14 - 96 x6 * x15
   - 50 x6 * x16 + 24 x6 * x17 + 92 x6 * x19 - 56 x6 * x20 - 82 x6 * x21
   - 50 x6 * x22 + 16 x6 * x23 + 76 x6 * x24 - 74 x6 * x28 + 25 x7 ^2
   + 94 x7 * x8 - 76 x7 * x9 + 26 x7 * x10 - 66 x7 * x11 + 80 x7 * x12
   + 62 x7 * x13 + 64 x7 * x14 + 18 x7 * x15 + 38 x7 * x16 + 54 x7 * x17
   + 10 x7 * x18 + 90 x7 * x21 - 84 x7 * x22 - 10 x7 * x23 - 6 x7 * x24
   + 54 x7 * x25 - 90 x7 * x26 + 98 x7 * x27 - 32 x7 * x28 - 88 x7 * x29
   + 40 x8 * x9 + 42 x8 * x11 - 60 x8 * x12 + 84 x8 * x13 + 60 x8 * x14
   - 26 x8 * x15 - 92 x8 * x16 + 8 x8 * x17 - 74 x8 * x18 - 90 x8 * x21
   + 94 x8 * x22 + 98 x8 * x23 - 32 x8 * x24 - 50 x8 * x25 + 2 x8 * x26
   + 2 x8 * x27 + 50 x8 * x28 - 72 x8 * x29 - 45 x9 ^2 - 50 x9 * x10
   + 76 x9 * x11 + 4 x9 * x12 + 30 x9 * x13 - 94 x9 * x14 + 14 x9 * x15
   + 2 x9 * x16 + 76 x9 * x17 - 36 x9 * x18 - 46 x9 * x19 + 96 x9 * x20
   + 14 x9 * x21 - 26 x9 * x22 + 82 x9 * x23 + 70 x9 * x24 - 90 x9 * x25
   + 56 x9 * x26 + 18 x9 * x27 + 42 x9 * x28 + 36 x10 ^2 - 82 x10 * x11
   - 20 x10 * x12 - 94 x10 * x13 - 40 x10 * x14 - 24 x10 * x15
   + 50 x10 * x16 + 6 x10 * x17 + 24 x10 * x18 + 82 x10 * x19
   - 54 x10 * x20 + 64 x10 * x21 - 88 x10 * x22 + 46 x10 * x23
   + 60 x10 * x26 + 6 x10 * x27 - 72 x10 * x28 + 40 x11 ^2 - 94 x11 * x12
   - 10 x11 * x13 + 80 x11 * x14 - 84 x11 * x15 + 84 x11 * x16
   - 64 x11 * x17 - 56 x11 * x18 + 80 x11 * x19 + 2 x11 * x20
   - 52 x11 * x21 - 94 x11 * x22 + 18 x11 * x23 - 50 x11 * x25
   - 82 x11 * x26 - 32 x11 * x27 - 8 x11 * x28 - 40 x11 * x29 + 5 x12 ^2
   + 52 x12 * x13 - 44 x12 * x14 + 58 x12 * x15 + 76 x12 * x16
   + 74 x12 * x17 - 14 x12 * x18 + 40 x12 * x19 - 88 x12 * x20
   - 6 x12 * x21 - 98 x12 * x22 + 90 x12 * x23 - 36 x12 * x24
   + 66 x12 * x25 - 98 x12 * x26 + 46 x12 * x28 + 94 x12 * x29 + 16 x13 ^2
   + 42 x13 * x15 + 14 x13 * x16 - 14 x13 * x18 + 12 x13 * x19
   - 16 x13 * x20 + 20 x13 * x21 - 38 x13 * x22 - 52 x13 * x23
   + 4 x13 * x24 + 2 x13 * x25 - 18 x13 * x26 + 70 x13 * x27 + 32 x13 * x28
   - 20 x13 * x29 - 15 x14 ^2 + 90 x14 * x15 - 52 x14 * x16 - 78 x14 * x17
   + 14 x14 * x18 + 88 x14 * x20 + 70 x14 * x21 + 54 x14 * x22
   - 20 x14 * x23 - 28 x14 * x24 - 18 x14 * x25 + 92 x14 * x26
   + 56 x14 * x28 - 70 x14 * x29 + 26 x15 * x16 + 10 x15 * x17
   + 42 x15 * x18 + 60 x15 * x19 - 84 x15 * x20 - 44 x15 * x21
   + 50 x15 * x22 + 70 x15 * x23 + 48 x15 * x25 - 18 x15 * x26
   + 72 x15 * x27 + 48 x15 * x28 + 45 x16 ^2 - 30 x16 * x17 + 96 x16 * x18
   - 70 x16 * x19 - 58 x16 * x20 - 10 x16 * x21 - 92 x16 * x22
   + 60 x16 * x23 + 46 x16 * x24 - 62 x16 * x25 - 92 x16 * x26
   + 68 x16 * x27 + 70 x16 * x28 + 94 x16 * x29 + 40 x17 ^2 + 14 x17 * x18
   + 14 x17 * x19 + 22 x17 * x20 + 38 x17 * x21 + 52 x17 * x22
   + 96 x17 * x24 + 64 x17 * x25 - 76 x17 * x26 - 32 x17 * x27
   - 24 x17 * x28 - 96 x17 * x29 - 12 x18 ^2 - 90 x18 * x19 - 22 x18 * x20
   + 44 x18 * x21 + 68 x18 * x22 + 16 x18 * x24 + 82 x18 * x25
   + 98 x18 * x26 - 20 x18 * x28 - 86 x18 * x29 - 28 x19 ^2 - 50 x19 * x20
   - 70 x19 * x21 - 4 x19 * x22 + 16 x19 * x23 + 10 x19 * x24
   + 26 x19 * x25 + 42 x19 * x26 + 76 x19 * x27 - 66 x19 * x28
   + 90 x19 * x29 - 28 x20 ^2 + 74 x20 * x21 - 18 x20 * x22 - 26 x20 * x23
   - 28 x20 * x24 + 56 x20 * x26 - 88 x20 * x27 + 72 x20 * x28
   - 94 x20 * x29 + 74 x21 * x22 + 88 x21 * x23 + 38 x21 * x24
   - 42 x21 * x25 + 50 x21 * x26 - 46 x21 * x27 - 66 x21 * x28
   + 14 x21 * x29 - 33 x22 ^2 + 58 x22 * x23 + 82 x22 * x24 + 72 x22 * x25
   + 22 x22 * x26 + 90 x22 * x27 + 14 x22 * x28 + 94 x22 * x29 - 21 x23 ^2
   + 40 x23 * x24 + 10 x23 * x25 - 66 x23 * x26 - 66 x23 * x27
   - 94 x23 * x29 + 10 x24 ^2 + 68 x24 * x25 - 20 x24 * x26 + 96 x24 * x27
   + 56 x24 * x28 + 96 x24 * x29 - 34 x25 ^2 - 98 x25 * x26 - 76 x25 * x27
   + 28 x25 * x28 - 70 x25 * x29 + 47 x26 ^2 + 82 x26 * x27 - 74 x26 * x28
   + 14 x26 * x29 - 34 x27 ^2 - 44 x27 * x28 + 2 x27 * x29 + 34 x28 ^2
   - 6 x28 * x29 + 28 x29 ^2 ] / 2 
Subject To
Bounds
 x0 <= 1
 x1 <= 1
 x2 <= 1
 x3 <= 1
 x4 <= 1
 x5 <= 1
 x6 <= 1
 x7 <= 1
 x8 <= 1
 x9 <= 1
 x10 <= 1
 x11 <= 1
 x12 <= 1
 x13 <= 1
 x14 <= 1
 x15 <= 1
 x16 <= 1
 x17 <= 1
 x18 <= 1
 x19 <= 1
 x20 <= 1
 x21 <= 1
 x22 <= 1
 x23 <= 1
 x24 <= 1
 x25 <= 1
 x26 <= 1
 x27 <= 1
 x28 <= 1
 x29 <= 1
End
